NAME : n60w120.003.541.tour
COMMENT : Length = 541
COMMENT : Found by LKH [Keld Helsgaun] Tue Nov  7 19:39:18 2017
TYPE : TOUR
DIMENSION : 61
TOUR_SECTION
1
19
57
13
2
15
35
32
20
38
23
30
34
50
21
46
41
16
39
49
53
6
8
9
60
26
27
12
45
14
47
18
42
10
28
24
25
4
48
56
52
36
43
44
40
22
51
17
7
29
55
33
58
31
59
37
61
5
54
11
3
-1
EOF
